Route #1: 1 5 46 30 38 49 38 16 14 9 8 1 
Route #2: 1 2 24 2 43 42 44 2 3 1 
Route #3: 1 6 38 37 21 38 22 48 38 1 
Route #4: 1 31 1 
Route #5: 1 45 19 51 45 25 45 4 17 52 1 
Route #6: 1 13 11 39 12 11 40 10 33 45 1 
Route #7: 1 41 45 26 45 50 45 18 1 
Route #8: 1 7 34 2 23 2 29 2 1 
Route #9: 1 35 47 9 55 9 20 15 9 53 28 1 
Route #10: 1 27 11 32 11 54 36 9 1 
Cost 988.0
